#######  Datos del problema wolsey p109

set NODES := 0 1 2 3 ; 
set ARCS  := (0,1) (0,2) (0,3) 
             (1,0) (1,2) (1,3) 
             (2,0) (2,1) (2,3)
             (3,0) (3,1) (3,2)  ;                   
		             
param: 	c :=	    
0	1	7
0	2	6 
0	3	3
1	0	3
1	2	6
1	3	9
2	0	2
2	1	3
2	3	1
3  0   7  
3  1   9  
3   2   4 ;

param p :=4 ;